min: 13 x1_4 + 3 x1_6 + 4 x6_9 + 12 x9_12 + 4 x12_7 + 4 x7_4 + 4 x6_13 + 4 x13_7 +
2 x4_3 + 6 x3_2 + 2 x2_5 + 4 x5_3 + 3 x2_1 + 2 x9_10 + 5 x10_11 + 2 x11_8 3 x8_10 +
3 x11_12 + 6.08 x1_3 + 8.06 x1_4_e + 4.12 x1_5 + 8.54 x1_7 + 7.21 x1_8 + 7.28 x1_10 +
8.60 x1_11 + 10.63 x1_12 + 5.00 x1_13 + 3.16 x2_3 + 5.10 x2_4 + 1.41 x2_5_e + 4.24 x2_6 +
5.83 x2_7 + 6.08 x2_8 +	7.62 x2_9 + 7.07 x2_10 + 7.28 x2_11 + 8.60 x2_12 + 3.16 x2_13 +
2.83 x3_5_e + 7.21 x3_6 + 4.47 x3_7 + 7.28 x3_8 + 10.00 x3_9 + 8.94 x3_10 + 8.06 x3_11 +
8.25 x3_12 + 4.47 x3_13 + 4.47 x4_5 + 8.94 x4_6 + 8.06 x4_8 + 11.31 x4_9 + 10.00 x4_10 +
8.54 x4_11 + 5.66 x4_13 + 4.47 x5_6 + 4.47 x5_7 + 7.21 x5_9 + 6.32 x5_10 + 6.08 x5_11 +
7.21 x5_12 + 2.00 x5_13 + 5.00 x6_8 + 4.47 x6_10 + 6.40 x6_11 + 8.94 x6_12 + 5.00 x7_8 +
8.94 x7_9 + 7.21 x7_10 + 5.00 x7_11 + 4.12 x8_9	+ 2.24 x8_10_e + 1.41 x8_11_e + 4.12 x8_12 +
3.00 x8_13 + 5.66 x9_13 + 3.00 x10_11_e + 4.47 x10_13 + 4.12 x11_13 + 5.56 x12_13;

//Garantir que cada aresta é visitada pelo menos uma vez
x1_4  >= 1; x13_7 >= 1; x10_11 >= 1;
x1_6  >= 1; x4_3  >= 1; x11_8  >= 1;
x6_9  >= 1; x3_2  >= 1; x8_10  >= 1;
x9_12 >= 1; x2_5  >= 1; x11_12 >= 1;
x12_7 >= 1; x5_3  >= 1;
x7_4  >= 1; x2_1  >= 1;
x6_13 >= 1; x9_10 >= 1;


